benchmarks_vrp/CMT2/min_c/CMT2_7.vrp
NAME: CMT2_7
TYPE: CVRP
COMMENT: 835.26 - Cluster Nr.7
DIMENSION: 7
CAPACITY: 140
EDGE_WEIGHT_TYPE: EUC_2D
NODE_COORD_TYPE: TWOD_COORDS
NODE_COORD_SECTION: 
5 35 16
6 26 13
7 40 20
1 40 40
2 50 4
3 36 6
4 44 13
DEPOT_SECTION: 
1
-1
DEMAND_SECTION: 
3 15
4 28
2 8
5 29
7 10
1 0
6 12
EOF
