benchmarks_vrp/CMT2/min_c/CMT2_7.tour
NAME: CMT2_7 solution
TYPE: TOUR
TOUR_SECTION:
1 4 2 3 6 5 7 -1
-1
EOF